(set-logic QF_S)
(declare-fun var0 () String)
(declare-fun var1 () String)
(declare-fun var2 () String)
(declare-fun var3 () String)
(declare-fun var4 () Int)
(declare-fun var5 () Int)
(declare-fun var6 () Int)
(declare-fun var7 () Int)
(assert (str.contains (str.replace "_8f})V.FL" var0 var1) (str.replace var2 var3 var0)))
(assert (>= var4 var5))
(assert (not (str.in.re var2 re.allchar)))
(assert (str.prefixof (str.at (str.substr "/+""!E!es" var6 var7) (str.len var1)) (str.at (str.from.int var4) (str.indexof var3 var3 var6))))
(check-sat)